TITLE
1.000
20.00 0.000 0.000
0.000 20.00 0.00
0.000 0.000 20.00
Si O C H 
1 4 4 12 
Cartesian
10.000000 10.027053 10.000000
11.353236 10.913040 10.253287
8.646764 10.913040 9.746713
10.264654 9.143439 8.652603
9.735346 9.143439 11.347397
11.624777 11.660258 11.450331
8.375223 11.660258 8.549669
11.446584 8.332174 8.466396
8.553416 8.332174 11.533604
12.481720 12.086647 11.373998
7.518280 12.086647 8.626002
11.628890 11.066042 12.204411
8.371110 11.066042 7.795589
10.945150 12.327417 11.572927
9.054850 12.327417 8.427073
11.492856 8.039217 7.552711
8.507144 8.039217 12.447289
11.404896 7.567758 9.045835
8.595104 7.567758 10.954165
12.226454 8.850482 8.675734
7.773546 8.850482 11.324266
