TITLE
1.000
20.000000 0.00000 0.00000
0.00000 20.000000 0.00000
0.00000 0.00000 20.000000
Si O C H 
1 2 8 20 
Cartesian
10.149473 9.739052 9.565462
11.721424 9.606871 9.997331
9.344528 8.346065 9.871580
9.963002 10.004039 7.745803
13.942545 9.287060 9.136864
12.620243 8.636173 9.448792
13.837240 10.279888 8.011286
9.504145 11.134136 10.586802
9.314701 14.646048 12.828844
9.384829 7.695403 11.156391
8.085205 7.154490 11.515733
10.405333 10.840484 7.490435
9.010946 10.055514 7.519058
10.373844 9.256609 7.263094
6.264652 9.748308 9.946623
6.587351 8.587630 8.892795
12.233553 8.252264 8.622246
12.754647 7.900780 10.097878
13.527781 9.823536 7.201122
6.704343 10.680031 7.845290
13.199013 10.982813 8.254279
9.577840 10.904833 11.536749
8.564152 11.296199 10.361845
10.027757 11.942225 10.404202
9.879816 13.852242 12.723902
8.407410 14.370672 13.076754
9.685229 15.220282 13.531253
9.671312 8.346359 11.845084
10.050173 6.962637 11.132576
7.773252 6.551053 10.795551
7.434274 7.896304 11.594401
