TITLE
1.000
20.000000 0.00000 0.00000
0.00000 20.000000 0.00000
0.00000 0.00000 20.000000
Si O C H 
1 2 8 20 
Cartesian
9.527083 10.804907 9.565462
8.722137 9.411919 9.871579
11.099033 10.672725 9.997330
8.762438 8.761257 11.156390
7.462815 8.220344 11.515732
7.506831 7.451534 12.828843
9.340612 11.069893 7.745802
8.881755 12.199989 10.586802
11.997854 9.702026 9.448792
13.320156 10.352913 9.136863
13.214851 11.345741 8.011286
9.048923 9.412212 11.845083
9.427783 8.028491 11.132576
7.150862 7.616907 10.795551
6.811884 8.962158 11.594400
8.071945 6.657729 12.723902
6.599539 7.176158 13.076754
7.877358 8.025769 13.531252
11.611163 9.318119 8.622245
12.132257 8.966634 10.097877
9.782942 11.906338 7.490434
8.388556 11.121368 7.519058
9.751454 10.322462 7.263094
8.955450 11.970687 11.536748
7.941762 12.362053 10.361845
9.405367 13.008078 10.404201
13.654263 10.814163 9.946623
13.976961 9.653484 8.892794
12.905392 10.889389 7.201120
14.093952 11.745885 7.845289
12.576624 12.048666 8.254278
