TITLE
1.000
20.000000 0.00000 0.00000
0.00000 20.000000 0.00000
0.00000 0.00000 20.000000
Si O C H 
1 3 9 14 
Cartesian
10.127652 10.245646 9.101875
10.931646 9.128420 8.252763
10.824438 11.676468 8.756388
8.573057 10.416982 8.670439
11.108683 9.186572 6.836729
10.286983 9.730505 10.872924
10.279226 12.952974 9.077319
7.577850 9.407124 8.847841
11.206017 8.754687 11.271547
9.485035 10.314152 11.866201
11.320278 8.364643 12.600365
9.603529 9.933328 13.199676
10.509865 8.958928 13.561252
11.892292 8.655403 6.583963
11.242693 10.117712 6.562794
10.312376 8.826313 6.393437
10.899908 13.655052 8.789835
10.142393 13.015381 10.045193
9.420851 13.067150 8.618361
6.711717 9.744688 8.537918
7.515782 9.173098 9.797508
7.823301 8.612144 8.330456
11.764629 8.349042 10.618889
8.851658 10.979354 11.624445
11.948013 7.697315 12.850165
9.059728 10.344646 13.862072
10.580398 8.692280 14.469640
