TITLE
1.000
20.000000 0.00000 0.00000
0.00000 20.000000 0.00000
0.00000 0.00000 20.000000
Si O C H 
3 3 7 22 
Cartesian
11.020807 8.858003 10.266161
10.977945 11.539465 11.707373
8.555370 8.984875 8.435568
10.724201 7.642429 11.226311
11.310556 10.123296 11.128719
9.779516 9.159753 9.393746
12.457550 8.482530 9.296154
12.558704 12.386423 11.930158
10.165276 11.297720 13.271805
9.921819 12.460146 10.558938
8.440500 7.266956 7.906204
8.805687 10.078719 7.031817
7.094625 9.463217 9.350372
9.954395 7.426403 11.155334
12.546703 9.118605 8.609065
12.366682 7.626998 8.919586
13.218783 8.504818 9.846219
13.052477 11.954370 12.604431
12.402686 13.277957 12.179561
13.040476 12.364134 11.123790
9.386898 10.786802 13.143653
9.933820 12.132678 13.637528
10.743059 10.848524 13.860314
9.056002 12.093245 10.565839
10.278433 12.405283 9.690466
9.882386 13.360253 10.824113
8.298197 6.718319 8.656384
9.239452 7.016641 7.480347
7.723843 7.170945 7.305864
8.815973 10.970255 7.329523
8.106174 9.963849 6.414719
9.625213 9.876410 6.617790
7.154633 10.370183 9.584988
7.027760 8.942013 10.131109
6.333392 9.327772 8.816079
